objective value:                 0.000858176087999986
x_1_2                                               1 	(obj:0)
x_2_3                                               1 	(obj:0)
x_3_2                                               1 	(obj:0)
x_4_1                                               1 	(obj:0)
x_5_1                                               1 	(obj:0)
x_6_3                                               1 	(obj:0)
x_7_3                                               1 	(obj:0)
x_8_2                                               1 	(obj:0)
x_9_1                                               1 	(obj:0)
x_10_1                                              1 	(obj:0)
x_11_2                                              1 	(obj:0)
x_12_2                                              1 	(obj:0)
x_13_3                                              1 	(obj:0)
x_14_3                                              1 	(obj:0)
x_15_1                                              1 	(obj:0)
x_16_2                                              1 	(obj:0)
x_17_3                                              1 	(obj:0)
x_18_3                                              1 	(obj:0)
x_19_2                                              1 	(obj:0)
x_20_2                                              1 	(obj:0)
ind_1                                               1 	(obj:0)
abs_1_3                                             1 	(obj:0)
ind_2                                               1 	(obj:0)
abs_2_1                                             1 	(obj:0)
ind_3                                               1 	(obj:0)
abs_3_2                                             1 	(obj:0)
epsI                             0.000858176087999986 	(obj:1)
prodt_x_19_2_t_x_20_2_coh_2                         1 	(obj:0)
prodt_x_1_2_t_x_2_1_more_coh_1            1.723390679 	(obj:0)
prodt_x_4_1_t_x_5_1_more_coh_1          2.96154682975 	(obj:0)
prodt_x_5_1_t_x_6_1_more_coh_1           2.6888113197 	(obj:0)
prodt_x_9_1_t_x_14_1_more_coh_1          2.2948571268 	(obj:0)
prodt_x_10_1_t_x_11_1_more_coh_1         1.8613135748 	(obj:0)
prodt_x_1_2_t_x_2_2_more_coh_2           3.8641411515 	(obj:0)
prodt_x_3_2_t_x_4_2_more_coh_2           3.1480729231 	(obj:0)
prodt_x_8_2_t_x_11_2_more_coh_2          3.4029970047 	(obj:0)
prodt_x_11_2_t_x_12_2_more_coh_2         2.3735518519 	(obj:0)
prodt_x_12_2_t_x_13_2_more_coh_2         2.4718648724 	(obj:0)
prodt_x_16_2_t_x_17_2_more_coh_2         1.0404644539 	(obj:0)
prodt_x_2_3_t_x_3_3_more_coh_3           6.0848228564 	(obj:0)
prodt_x_6_3_t_x_7_3_more_coh_3           4.6621135766 	(obj:0)
prodt_x_7_3_t_x_9_3_more_coh_3           3.7509195894 	(obj:0)
prodt_x_13_3_t_x_15_3_more_coh_3          3.557801175 	(obj:0)
prodt_x_14_3_t_x_15_3_more_coh_3         0.7623305978 	(obj:0)
prodt_x_17_3_t_x_18_3_more_coh_3         1.1754559297 	(obj:0)
prodt_x_1_2_t_x_2_2_more_irrev1_2_1    -1.26610244946926 	(obj:0)
prodt_x_3_2_t_x_4_1_more_irrev1_2_1   -0.326211659364702 	(obj:0)
prodt_x_4_1_t_x_5_2_more_irrev1_2_1           -1.1174997 	(obj:0)
prodt_x_5_1_t_x_10_2_more_irrev1_2_1    -2.88421403692655 	(obj:0)
prodt_x_8_2_t_x_9_1_more_irrev1_2_1    -1.75081852548448 	(obj:0)
prodt_x_9_1_t_x_11_2_more_irrev1_2_1    -2.77753015500036 	(obj:0)
prodt_x_10_1_t_x_12_2_more_irrev1_2_1   -0.791024959039785 	(obj:0)
prodt_x_11_2_t_x_13_1_more_irrev1_2_1   -0.185098575441135 	(obj:0)
prodt_x_12_2_t_x_13_1_more_irrev1_2_1   -0.754352880000006 	(obj:0)
prodt_x_15_1_t_x_20_2_more_irrev1_2_1    -1.65036788342371 	(obj:0)
prodt_x_1_2_t_x_2_2_more_irrev2_2_1     1.26610244946926 	(obj:0)
prodt_x_3_2_t_x_4_1_more_irrev2_2_1    0.326211659364702 	(obj:0)
prodt_x_4_1_t_x_5_2_more_irrev2_2_1            1.1174997 	(obj:0)
prodt_x_5_1_t_x_10_2_more_irrev2_2_1     2.88421403692655 	(obj:0)
prodt_x_8_2_t_x_9_1_more_irrev2_2_1     1.75081852548448 	(obj:0)
prodt_x_9_1_t_x_11_2_more_irrev2_2_1     2.77753015500036 	(obj:0)
prodt_x_10_1_t_x_12_2_more_irrev2_2_1    0.791024959039785 	(obj:0)
prodt_x_11_2_t_x_13_1_more_irrev2_2_1    0.185098575441135 	(obj:0)
prodt_x_12_2_t_x_13_1_more_irrev2_2_1    0.754352880000006 	(obj:0)
prodt_x_15_1_t_x_20_2_more_irrev2_2_1     1.65036788342371 	(obj:0)
prodt_x_1_2_t_x_2_3_more_irrev1_3_1      1.2703442729078 	(obj:0)
prodt_x_2_3_t_x_3_1_more_irrev1_3_1     2.43003864738016 	(obj:0)
prodt_x_4_1_t_x_5_3_more_irrev1_3_1           2.22102643 	(obj:0)
prodt_x_5_1_t_x_10_3_more_irrev1_3_1    0.652867812101878 	(obj:0)
prodt_x_6_3_t_x_7_1_more_irrev1_3_1     1.07236915345067 	(obj:0)
prodt_x_7_3_t_x_10_1_more_irrev1_3_1     1.57996672999999 	(obj:0)
prodt_x_9_1_t_x_11_3_more_irrev1_3_1    0.763665696599569 	(obj:0)
prodt_x_10_1_t_x_12_3_more_irrev1_3_1     2.42989474171974 	(obj:0)
prodt_x_13_3_t_x_17_1_more_irrev1_3_1                    1 	(obj:0)
prodt_x_14_3_t_x_15_1_more_irrev1_3_1   0.0392905316142738 	(obj:0)
prodt_x_15_1_t_x_20_3_more_irrev1_3_1     1.42981137671885 	(obj:0)
prodt_x_1_2_t_x_2_3_more_irrev2_3_1     -1.2703442729078 	(obj:0)
prodt_x_2_3_t_x_3_1_more_irrev2_3_1    -2.43003864738016 	(obj:0)
prodt_x_4_1_t_x_5_3_more_irrev2_3_1          -2.22102643 	(obj:0)
prodt_x_5_1_t_x_10_3_more_irrev2_3_1   -0.652867812101879 	(obj:0)
prodt_x_6_3_t_x_7_1_more_irrev2_3_1    -1.07236915345067 	(obj:0)
prodt_x_7_3_t_x_10_1_more_irrev2_3_1    -1.57996672999999 	(obj:0)
prodt_x_9_1_t_x_11_3_more_irrev2_3_1   -0.763665696599569 	(obj:0)
prodt_x_10_1_t_x_12_3_more_irrev2_3_1    -2.42989474171974 	(obj:0)
prodt_x_13_3_t_x_17_1_more_irrev2_3_1                   -1 	(obj:0)
prodt_x_14_3_t_x_15_1_more_irrev2_3_1  -0.0392905316142735 	(obj:0)
prodt_x_15_1_t_x_20_3_more_irrev2_3_1    -1.42981137671885 	(obj:0)
prodt_x_1_2_t_x_2_3_more_irrev1_3_2     -1.2703442729078 	(obj:0)
prodt_x_2_3_t_x_3_2_more_irrev1_3_2   -0.641842001064113 	(obj:0)
prodt_x_3_2_t_x_4_3_more_irrev1_3_2    -3.53539236903754 	(obj:0)
prodt_x_6_3_t_x_7_2_more_irrev1_3_2     -3.7405733118166 	(obj:0)
prodt_x_7_3_t_x_10_2_more_irrev1_3_2          -0.35944194 	(obj:0)
prodt_x_8_2_t_x_9_3_more_irrev1_3_2    -1.33707220327552 	(obj:0)
prodt_x_11_2_t_x_13_3_more_irrev1_3_2    -2.84176585103457 	(obj:0)
prodt_x_12_2_t_x_14_3_more_irrev1_3_2   -0.315679099999999 	(obj:0)
prodt_x_13_3_t_x_17_2_more_irrev1_3_2    -0.83914680050695 	(obj:0)
prodt_x_14_3_t_x_15_2_more_irrev1_3_2    -2.19616996789085 	(obj:0)
prodt_x_16_2_t_x_20_3_more_irrev1_3_2   -0.588106906033889 	(obj:0)
prodt_x_17_3_t_x_18_2_more_irrev1_3_2   -0.133157783985562 	(obj:0)
prodt_x_18_3_t_x_19_2_more_irrev1_3_2     1.82497756379364 	(obj:0)
prodt_x_1_2_t_x_2_3_more_irrev2_3_2      1.2703442729078 	(obj:0)
prodt_x_2_3_t_x_3_2_more_irrev2_3_2    0.641842001064113 	(obj:0)
prodt_x_3_2_t_x_4_3_more_irrev2_3_2     3.53539236903754 	(obj:0)
prodt_x_6_3_t_x_7_2_more_irrev2_3_2      3.7405733118166 	(obj:0)
prodt_x_7_3_t_x_10_2_more_irrev2_3_2    0.359441940000001 	(obj:0)
prodt_x_8_2_t_x_9_3_more_irrev2_3_2     1.33707220327552 	(obj:0)
prodt_x_11_2_t_x_13_3_more_irrev2_3_2     2.84176585103457 	(obj:0)
prodt_x_12_2_t_x_14_3_more_irrev2_3_2    0.315679099999999 	(obj:0)
prodt_x_13_3_t_x_17_2_more_irrev2_3_2     0.83914680050695 	(obj:0)
prodt_x_14_3_t_x_15_2_more_irrev2_3_2     2.19616996789085 	(obj:0)
prodt_x_16_2_t_x_20_3_more_irrev2_3_2    0.588106906033889 	(obj:0)
prodt_x_17_3_t_x_18_2_more_irrev2_3_2    0.133157783985562 	(obj:0)
prodt_x_18_3_t_x_19_2_more_irrev2_3_2     1.82497756379364 	(obj:0)
SCIP Status        : solving was interrupted [time limit reached]
Total Time         :    3600.00
  solving          :    3600.00
  presolving       :       0.05 (included in solving)
  reading          :       0.00
  copying          :       1.43 (166 #copies) (minimal 0.00, maximal 0.02, average 0.01)
Original Problem   :
  Problem name     : ../instances/Pot4/Pot4_T_20B_alpha=20.txt.spa
  Variables        : 101 (100 binary, 0 integer, 0 implicit integer, 1 continuous)
  Constraints      : 193 initial, 193 maximal
  Objective sense  : maximize
Presolved Problem  :
  Problem name     : t_../instances/Pot4/Pot4_T_20B_alpha=20.txt.spa
  Variables        : 590 (92 binary, 0 integer, 16 implicit integer, 482 continuous)
  Constraints      : 2015 initial, 6179 maximal
Presolvers         :   ExecTime  SetupTime  Calls  FixedVars   AggrVars   ChgTypes  ChgBounds   AddHoles    DelCons    AddCons   ChgSides   ChgCoefs
  boundshift       :       0.00       0.00      0          0          0          0          0          0          0          0          0          0
  components       :       0.00       0.00      1          0          0          0          0          0          0          0          0          0
  convertinttobin  :       0.00       0.00      0          0          0          0          0          0          0          0          0          0
  domcol           :       0.00       0.00      1          0          0          0          0          0          0          0          0          0
  dualagg          :       0.00       0.00      0          0          0          0          0          0          0          0          0          0
  dualinfer        :       0.00       0.00      0          0          0          0          0          0          0          0          0          0
  gateextraction   :       0.00       0.00      3          0          0          0          0          0        108         34          0          0
  implfree         :       0.00       0.00      0          0          0          0          0          0          0          0          0          0
  implics          :       0.00       0.00      4          0          0          0          0          0          0          0          0          0
  inttobinary      :       0.00       0.00      0          0          0          0          0          0          0          0          0          0
  redvub           :       0.00       0.00      0          0          0          0          0          0          0          0          0          0
  stuffing         :       0.00       0.00      1          0          0          0          0          0          0          0          0          0
  trivial          :       0.00       0.00      7          0          0          0          0          0          0          0          0          0
  tworowbnd        :       0.00       0.00      0          0          0          0          0          0          0          0          0          0
  dualfix          :       0.00       0.00      7          4          0          0          0          0          0          0          0          0
  genvbounds       :       0.00       0.00      0          0          0          0          0          0          0          0          0          0
  probing          :       0.03       0.00      1          0          0          0          4          0          0          0          0          0
  pseudoobj        :       0.00       0.00      0          0          0          0          0          0          0          0          0          0
  varbound         :       0.00       0.00      9          0          0          0          0          0         28         28          0          0
  setppc           :       0.01       0.00     12          0          0          0          0          0          0          0          0          0
  and              :       0.00       0.00      4          0         12          0          0          0         12          0          0          0
  linear           :       0.00       0.00      9          3          1          0          4          0          7          0         12         12
  logicor          :       0.00       0.00      7          0          0          0          0          0          0          0          0          0
  bounddisjunction :       0.00       0.00      0          0          0          0          0          0          0          0          0          0
  quadratic        :       0.01       0.00      2          0          0          0          0          0          0       1915          0          0
  root node        :          -          -      -          1          -          -         82          -          -          -          -          -
Constraints        :     Number  MaxNumber  #Separate #Propagate    #EnfoLP    #EnfoPS     #Check   #ResProp    Cutoffs    DomReds       Cuts    Applied      Conss   Children
  integral         :          0          0          0          0    2118623          0     420570          0          0      49788          0          0         92    4211822
  varbound         :        869        869         82   12620207       8614          0     145003    4454035      66207   86724688          1          1          0          0
  setppc           :        110+       152         82   12553644       8610          0        991    2469489      13234    5297880         10          1          0          0
  and              :         22         22     122774     674431       2799          0        581     450104          0      66949       1488       1467          0          0
  linear           :        979        979         82   12540766       6007          0        501    1875848     218747  129506213     231783     231572          0          0
  logicor          :         35+       913         75    3340520          0          0          0      71147       2659     142196          1          1          0          0
  bounddisjunction :          0+      3456          0    5612796          0          0          0     516158       6236    7345575          0          0          0          0
  countsols        :          0          0          0          0          1          0     274983          0          0          0          0          0          0          0
Constraint Timings :  TotalTime  SetupTime   Separate  Propagate     EnfoLP     EnfoPS      Check    ResProp    SB-Prop
  integral         :      18.39       0.00       0.00       0.00      18.31       0.00       0.08       0.00       0.00
  varbound         :      61.05       0.00       0.00      59.66       0.02       0.00       0.57       0.69       0.11
  setppc           :      39.41       0.00       0.00      38.83       0.00       0.00       0.00       0.51       0.07
  and              :       0.30       0.00       0.06       0.12       0.00       0.00       0.00       0.12       0.00
  linear           :     179.46       0.00       0.02     177.71       0.23       0.00       0.02       1.04       0.44
  logicor          :      11.48       0.00       0.00      11.48       0.00       0.00       0.00       0.00       0.00
  bounddisjunction :      93.33       0.00       0.00      93.25       0.00       0.00       0.00       0.06       0.02
  countsols        :       0.01       0.00       0.00       0.00       0.00       0.00       0.01       0.00       0.00
Propagators        : #Propagate   #ResProp    Cutoffs    DomReds
  dualfix          :          2          0          0          0
  genvbounds       :          0          0          0          0
  obbt             :          0          0          0          0
  probing          :          0          0          0          0
  pseudoobj        :   13613194          0         31         80
  redcost          :    4683811          0       1007     711477
  rootredcost      :          3          0          0          1
  vbounds          :   14737092       8498         10      45738
Propagator Timings :  TotalTime  SetupTime   Presolve  Propagate    ResProp    SB-Prop
  dualfix          :       0.00       0.00       0.00       0.00       0.00       0.00
  genvbounds       :       1.87       0.00       0.00       1.86       0.00       0.01
  obbt             :       0.00       0.00       0.00       0.00       0.00       0.00
  probing          :       0.03       0.00       0.03       0.00       0.00       0.00
  pseudoobj        :       3.34       0.00       0.00       3.34       0.00       0.00
  redcost          :      23.20       0.00       0.00      23.20       0.00       0.00
  rootredcost      :       2.00       0.00       0.00       2.00       0.00       0.00
  vbounds          :       4.52       0.00       0.00       4.52       0.00       0.00
Conflict Analysis  :       Time      Calls    Success    DomReds  Conflicts   Literals    Reconvs ReconvLits   LP Iters
  propagation      :       3.66      89482      87941          -     871678       35.5       5125       45.7          -
  infeasible LP    :      13.62     107497      99548          -    1543410       37.2         93       13.8          0
  bound exceed. LP :       0.00          0          0          -          0        0.0          0        0.0          0
  strong branching :       0.00          0          0          -          0        0.0          0        0.0          0
  pseudo solution  :       0.00          0          0          -          0        0.0          0        0.0          -
  applied globally :       3.96          -          -          0     362951       19.9          -          -          -
  applied locally  :          -          -          -          0       2117       34.3          -          -          -
Separators         :   ExecTime  SetupTime      Calls    Cutoffs    DomReds       Cuts    Applied      Conss
  cut pool         :       0.00                    80          -          -       1080          -          -    (maximal pool size: 768)
  cgmip            :       0.00       0.00          0          0          0          0          0          0
  clique           :       0.01       0.00         81          0          0         32         27          0
  closecuts        :       0.00       0.00          0          0          0          0          0          0
  cmir             :       0.00       0.00         10          0          0        188        116          0
  disjunctive      :       0.00       0.00          0          0          0          0          0          0
  eccuts           :       0.00       0.00          0          0          0          0          0          0
  flowcover        :       0.13       0.00         15          0          0        293         41          0
  gomory           :       0.02       0.00         10          0          0          6          5          0
  impliedbounds    :       0.00       0.00         81          0          0        666        145          0
  intobj           :       0.00       0.00          0          0          0          0          0          0
  mcf              :       0.00       0.00          1          0          0          0          0          0
  oddcycle         :       0.00       0.00          0          0          0          0          0          0
  rapidlearning    :       0.00       0.00          0          0          0          0          0          0
  strongcg         :       0.06       0.00         20          0          0         41         11          0
  zerohalf         :       0.00       0.00          0          0          0          0          0          0
Pricers            :   ExecTime  SetupTime      Calls       Vars
  problem variables:       0.00          -          0          0
Branching Rules    :   ExecTime  SetupTime   BranchLP  BranchExt   BranchPS    Cutoffs    DomReds       Cuts      Conss   Children
  allfullstrong    :       0.00       0.00          0          0          0          0          0          0          0          0
  cloud            :       0.00       0.00          0          0          0          0          0          0          0          0
  distribution     :       0.00       0.00          0          0          0          0          0          0          0          0
  fullstrong       :       0.00       0.00          0          0          0          0          0          0          0          0
  inference        :       0.00       0.00          0          0          0          0          0          0          0          0
  leastinf         :       0.00       0.00          0          0          0          0          0          0          0          0
  mostinf          :       0.00       0.00          0          0          0          0          0          0          0          0
  multaggr         :       0.00       0.00          0          0          0          0          0          0          0          0
  nodereopt        :       0.00       0.00          0          0          0          0          0          0          0          0
  pscost           :       0.00       0.00          0          0          0          0          0          0          0          0
  random           :       0.00       0.00          0          0          0          0          0          0          0          0
  relpscost        :      17.67       0.00    2110009          0          0          0      49788          0       -451    4211822
Primal Heuristics  :   ExecTime  SetupTime      Calls      Found       Best
  LP solutions     :       0.00          -          -          1          -
  pseudo solutions :       0.00          -          -          0          -
  strong branching :       0.00          -          -          0          -
  SpaGreedy        :     321.20       0.00     274981          2          1
  actconsdiving    :       0.00       0.00          0          0          0
  bound            :       0.00       0.00          0          0          0
  clique           :       0.00       0.00          0          0          0
  coefdiving       :      25.26       0.00       8080          0          0
  crossover        :       0.93       0.00          0          0          0
  dins             :       0.00       0.00          0          0          0
  distributiondivin:      48.71       0.00       8079          0          0
  dualval          :       0.00       0.00          0          0          0
  feaspump         :      21.08       0.00       1950          0          0
  fixandinfer      :       0.00       0.00          0          0          0
  fracdiving       :      24.81       0.00       8080          0          0
  guideddiving     :      25.31       0.00       8080          0          0
  indicator        :       0.51       0.00          0          0          0
  intdiving        :       0.00       0.00          0          0          0
  intshifting      :       0.41       0.00        132          0          0
  linesearchdiving :      24.89       0.00       8080          0          0
  localbranching   :       0.00       0.00          0          0          0
  mutation         :       0.00       0.00          0          0          0
  nlpdiving        :       0.07       0.00          0          0          0
  objpscostdiving  :      19.80       0.00       2858          0          0
  octane           :       0.00       0.00          0          0          0
  ofins            :       0.00       0.00          0          0          0
  oneopt           :       0.83       0.00          2          0          0
  proximity        :       0.00       0.00          0          0          0
  pscostdiving     :      24.19       0.00       8080          0          0
  randrounding     :       1.46       0.00     144952          0          0
  rens             :       0.39       0.00          1          0          0
  reoptsols        :       0.00       0.00          0          0          0
  rins             :       5.73       0.00        148          1          1
  rootsoldiving    :      22.13       0.00       3667          0          0
  rounding         :       0.85       0.00      20231          0          0
  shiftandpropagate:       0.00       0.00          0          0          0
  shifting         :       1.76       0.00       5657          0          0
  simplerounding   :       0.40       0.00          0          0          0
  subnlp           :       0.54       0.00          0          0          0
  trivial          :       0.00       0.00          2          0          0
  trivialnegation  :       0.00       0.00          0          0          0
  trysol           :       0.84       0.00          0          0          0
  twoopt           :       0.00       0.00          0          0          0
  undercover       :       0.00       0.00          1          0          0
  vbounds          :       0.00       0.00          0          0          0
  veclendiving     :      27.31       0.00       8080          0          0
  zeroobj          :       0.00       0.00          0          0          0
  zirounding       :       0.73       0.00       1000          0          0
  other solutions  :          -          -          -          0          -
Diving Statistics  :      Calls      Nodes   LP Iters Backtracks   MinDepth   MaxDepth   AvgDepth  NLeafSols  MinSolDpt  MaxSolDpt  AvgSolDpt
  actconsdiving    :          0          -          -          -          -          -          -          -          -          -          -
  coefdiving       :       8080      60449     596400      11203         15         41       28.4          -          -          -          -
  distributiondivin:       8079      51255     593684      11104         14         38       27.3          -          -          -          -
  fracdiving       :       8080      58833     658904      13383         16         47       27.8          -          -          -          -
  guideddiving     :       8080      59502     671842      13088         19         50       28.2          -          -          -          -
  linesearchdiving :       8080      52148     630203      13007         16         37       27.0          -          -          -          -
  pscostdiving     :       8080      67848     625300      10586         17         51       29.2          -          -          -          -
  veclendiving     :       8080      58833     607989      15041         16         37       27.7          -          -          -          -
LP                 :       Time      Calls Iterations  Iter/call   Iter/sec  Time-0-It Calls-0-It
  primal LP        :       0.00         12          0       0.00          -       0.00         12
  dual LP          :    1638.73    4406191   66486838      17.82   40572.17      68.67     675065
  lex dual LP      :       0.00          0          0       0.00          -
  barrier LP       :       0.00          0          0       0.00          -       0.00          0
  diving/probing LP:     160.03     248828    6477442      26.03   40476.42
  strong branching :       6.06       5814     211399      36.36   34884.32
    (at root node) :          -         19       1344      70.74          -
  conflict analysis:       0.00          0          0       0.00          -
B&B Tree           :
  number of runs   :          1
  nodes            :    4099151 (2105911 internal, 1993240 leaves)
  nodes (total)    :    4099151 (2105911 internal, 1993240 leaves)
  nodes left       :     104167
  max depth        :         37
  max depth (total):         37
  backtracks       :    1090906 (26.6%)
  delayed cutoffs  :       8461
  repropagations   :     135828 (3206211 domain reductions, 7458 cutoffs)
  avg switch length:       6.26
  switching time   :     504.89
Root Node          :
  First LP value   : +3.00000000000000e+00
  First LP Iters   :        353 (35300.00 Iter/sec)
  First LP Time    :       0.01
  Final Dual Bound : +7.05895768518408e-03
  Final Root Iters :       3017
Solution           :
  Solutions found  :          4 (3 improvements)
  First Solution   : +7.77759715000007e-04   (in run 1, after 1 nodes, 0.05 seconds, depth 0, found by <SpaGreedy>)
  Gap First Sol.   :   infinite
  Gap Last Sol.    :      71.07 %
  Primal Bound     : +8.58176087999986e-04   (in run 1, after 177789 nodes, 145.07 seconds, depth 25, found by <rins>)
  Dual Bound       : +1.16182416963177e-03
  Gap              :      35.38 %
  Avg. Gap         :      37.77 % (135955.36 primal-dual integral)
